Al63 Ni64 Mo1
1.0
11.545842 0.000000 0.000000
0.000000 11.545842 0.000000
0.000000 0.000000 11.545842
Al Ni Mo
63 64 1
direct
0.125000 0.125000 0.375000 Al
0.125000 0.125000 0.625000 Al
0.125000 0.125000 0.875000 Al
0.125000 0.375000 0.125000 Al
0.125000 0.375000 0.375000 Al
0.125000 0.375000 0.625000 Al
0.125000 0.375000 0.875000 Al
0.125000 0.625000 0.125000 Al
0.125000 0.625000 0.375000 Al
0.125000 0.625000 0.625000 Al
0.125000 0.625000 0.875000 Al
0.125000 0.875000 0.125000 Al
0.125000 0.875000 0.375000 Al
0.125000 0.875000 0.625000 Al
0.125000 0.875000 0.875000 Al
0.375000 0.125000 0.125000 Al
0.375000 0.125000 0.375000 Al
0.375000 0.125000 0.625000 Al
0.375000 0.125000 0.875000 Al
0.375000 0.375000 0.125000 Al
0.375000 0.375000 0.375000 Al
0.375000 0.375000 0.625000 Al
0.375000 0.375000 0.875000 Al
0.375000 0.625000 0.125000 Al
0.375000 0.625000 0.375000 Al
0.375000 0.625000 0.625000 Al
0.375000 0.625000 0.875000 Al
0.375000 0.875000 0.125000 Al
0.375000 0.875000 0.375000 Al
0.375000 0.875000 0.625000 Al
0.375000 0.875000 0.875000 Al
0.625000 0.125000 0.125000 Al
0.625000 0.125000 0.375000 Al
0.625000 0.125000 0.625000 Al
0.625000 0.125000 0.875000 Al
0.625000 0.375000 0.125000 Al
0.625000 0.375000 0.375000 Al
0.625000 0.375000 0.625000 Al
0.625000 0.375000 0.875000 Al
0.625000 0.625000 0.125000 Al
0.625000 0.625000 0.375000 Al
0.625000 0.625000 0.625000 Al
0.625000 0.625000 0.875000 Al
0.625000 0.875000 0.125000 Al
0.625000 0.875000 0.375000 Al
0.625000 0.875000 0.625000 Al
0.625000 0.875000 0.875000 Al
0.875000 0.125000 0.125000 Al
0.875000 0.125000 0.375000 Al
0.875000 0.125000 0.625000 Al
0.875000 0.125000 0.875000 Al
0.875000 0.375000 0.125000 Al
0.875000 0.375000 0.375000 Al
0.875000 0.375000 0.625000 Al
0.875000 0.375000 0.875000 Al
0.875000 0.625000 0.125000 Al
0.875000 0.625000 0.375000 Al
0.875000 0.625000 0.625000 Al
0.875000 0.625000 0.875000 Al
0.875000 0.875000 0.125000 Al
0.875000 0.875000 0.375000 Al
0.875000 0.875000 0.625000 Al
0.875000 0.875000 0.875000 Al
0.000000 0.000000 0.000000 Ni
0.000000 0.000000 0.250000 Ni
0.000000 0.000000 0.500000 Ni
0.000000 0.000000 0.750000 Ni
0.000000 0.250000 0.000000 Ni
0.000000 0.250000 0.250000 Ni
0.000000 0.250000 0.500000 Ni
0.000000 0.250000 0.750000 Ni
0.000000 0.500000 0.000000 Ni
0.000000 0.500000 0.250000 Ni
0.000000 0.500000 0.500000 Ni
0.000000 0.500000 0.750000 Ni
0.000000 0.750000 0.000000 Ni
0.000000 0.750000 0.250000 Ni
0.000000 0.750000 0.500000 Ni
0.000000 0.750000 0.750000 Ni
0.250000 0.000000 0.000000 Ni
0.250000 0.000000 0.250000 Ni
0.250000 0.000000 0.500000 Ni
0.250000 0.000000 0.750000 Ni
0.250000 0.250000 0.000000 Ni
0.250000 0.250000 0.250000 Ni
0.250000 0.250000 0.500000 Ni
0.250000 0.250000 0.750000 Ni
0.250000 0.500000 0.000000 Ni
0.250000 0.500000 0.250000 Ni
0.250000 0.500000 0.500000 Ni
0.250000 0.500000 0.750000 Ni
0.250000 0.750000 0.000000 Ni
0.250000 0.750000 0.250000 Ni
0.250000 0.750000 0.500000 Ni
0.250000 0.750000 0.750000 Ni
0.500000 0.000000 0.000000 Ni
0.500000 0.000000 0.250000 Ni
0.500000 0.000000 0.500000 Ni
0.500000 0.000000 0.750000 Ni
0.500000 0.250000 0.000000 Ni
0.500000 0.250000 0.250000 Ni
0.500000 0.250000 0.500000 Ni
0.500000 0.250000 0.750000 Ni
0.500000 0.500000 0.000000 Ni
0.500000 0.500000 0.250000 Ni
0.500000 0.500000 0.500000 Ni
0.500000 0.500000 0.750000 Ni
0.500000 0.750000 0.000000 Ni
0.500000 0.750000 0.250000 Ni
0.500000 0.750000 0.500000 Ni
0.500000 0.750000 0.750000 Ni
0.750000 0.000000 0.000000 Ni
0.750000 0.000000 0.250000 Ni
0.750000 0.000000 0.500000 Ni
0.750000 0.000000 0.750000 Ni
0.750000 0.250000 0.000000 Ni
0.750000 0.250000 0.250000 Ni
0.750000 0.250000 0.500000 Ni
0.750000 0.250000 0.750000 Ni
0.750000 0.500000 0.000000 Ni
0.750000 0.500000 0.250000 Ni
0.750000 0.500000 0.500000 Ni
0.750000 0.500000 0.750000 Ni
0.750000 0.750000 0.000000 Ni
0.750000 0.750000 0.250000 Ni
0.750000 0.750000 0.500000 Ni
0.750000 0.750000 0.750000 Ni
0.125000 0.125000 0.125000 Mo
