ALGO = Fast
EDIFF = 1e-06
EDIFFG = 0.001
ENCUT = 520
IBRION = 2
ICHARG = 1
ISIF = 2
ISMEAR = -5
ISPIN = 2
LORBIT = 11
LREAL = Auto
LWAVE = False
MAGMOM = 63*0.6 64*5
NELM = 99
NSW = 40
PREC = Accurate
SIGMA = 0.2
