pymatgen generated KPOINTS with grid density = 6000 / atom
0
Monkhorst
4 4 4
