Al80 V27
1.0
10.442274 0.000000 -4.317514
-1.785141 10.288554 -4.317514
0.008759 0.010410 14.807705
Al V
80 27
direct
0.166667 0.166667 0.333333 Al
0.166667 0.166667 0.666667 Al
0.166667 0.500000 0.000000 Al
0.166667 0.500000 0.333333 Al
0.166667 0.500000 0.666667 Al
0.166667 0.833333 0.000000 Al
0.166667 0.833333 0.333333 Al
0.166667 0.833333 0.666667 Al
0.500000 0.166667 0.000000 Al
0.500000 0.166667 0.333333 Al
0.500000 0.166667 0.666667 Al
0.500000 0.500000 0.000000 Al
0.500000 0.500000 0.333333 Al
0.500000 0.500000 0.666667 Al
0.500000 0.833333 0.000000 Al
0.500000 0.833333 0.333333 Al
0.500000 0.833333 0.666667 Al
0.833333 0.166667 0.000000 Al
0.833333 0.166667 0.333333 Al
0.833333 0.166667 0.666667 Al
0.833333 0.500000 0.000000 Al
0.833333 0.500000 0.333333 Al
0.833333 0.500000 0.666667 Al
0.833333 0.833333 0.000000 Al
0.833333 0.833333 0.333333 Al
0.833333 0.833333 0.666667 Al
0.083333 0.250000 0.166667 Al
0.083333 0.250000 0.500000 Al
0.083333 0.250000 0.833333 Al
0.083333 0.583333 0.166667 Al
0.083333 0.583333 0.500000 Al
0.083333 0.583333 0.833333 Al
0.083333 0.916667 0.166667 Al
0.083333 0.916667 0.500000 Al
0.083333 0.916667 0.833333 Al
0.416667 0.250000 0.166667 Al
0.416667 0.250000 0.500000 Al
0.416667 0.250000 0.833333 Al
0.416667 0.583333 0.166667 Al
0.416667 0.583333 0.500000 Al
0.416667 0.583333 0.833333 Al
0.416667 0.916667 0.166667 Al
0.416667 0.916667 0.500000 Al
0.416667 0.916667 0.833333 Al
0.750000 0.250000 0.166667 Al
0.750000 0.250000 0.500000 Al
0.750000 0.250000 0.833333 Al
0.750000 0.583333 0.166667 Al
0.750000 0.583333 0.500000 Al
0.750000 0.583333 0.833333 Al
0.750000 0.916667 0.166667 Al
0.750000 0.916667 0.500000 Al
0.750000 0.916667 0.833333 Al
0.250000 0.083333 0.166667 Al
0.250000 0.083333 0.500000 Al
0.250000 0.083333 0.833333 Al
0.250000 0.416667 0.166667 Al
0.250000 0.416667 0.500000 Al
0.250000 0.416667 0.833333 Al
0.250000 0.750000 0.166667 Al
0.250000 0.750000 0.500000 Al
0.250000 0.750000 0.833333 Al
0.583333 0.083333 0.166667 Al
0.583333 0.083333 0.500000 Al
0.583333 0.083333 0.833333 Al
0.583333 0.416667 0.166667 Al
0.583333 0.416667 0.500000 Al
0.583333 0.416667 0.833333 Al
0.583333 0.750000 0.166667 Al
0.583333 0.750000 0.500000 Al
0.583333 0.750000 0.833333 Al
0.916667 0.083333 0.166667 Al
0.916667 0.083333 0.500000 Al
0.916667 0.083333 0.833333 Al
0.916667 0.416667 0.166667 Al
0.916667 0.416667 0.500000 Al
0.916667 0.416667 0.833333 Al
0.916667 0.750000 0.166667 Al
0.916667 0.750000 0.500000 Al
0.916667 0.750000 0.833333 Al
0.000000 0.000000 0.000000 V
0.000000 0.000000 0.333333 V
0.000000 0.000000 0.666667 V
0.000000 0.333333 0.000000 V
1.000000 0.333333 0.333333 V
0.000000 0.333333 0.666667 V
0.000000 0.666667 0.000000 V
1.000000 0.666667 0.333333 V
1.000000 0.666667 0.666667 V
0.333333 1.000000 0.000000 V
0.333333 0.000000 0.333333 V
0.333333 0.000000 0.666667 V
0.333333 0.333333 0.000000 V
0.333333 0.333333 0.333333 V
0.333333 0.333333 0.666667 V
0.333333 0.666667 0.000000 V
0.333333 0.666667 0.333333 V
0.333333 0.666667 0.666667 V
0.666667 1.000000 0.000000 V
0.666667 0.000000 0.333333 V
0.666667 0.000000 0.666667 V
0.666667 0.333333 0.000000 V
0.666667 0.333333 0.333333 V
0.666667 0.333333 0.666667 V
0.666667 0.666667 0.000000 V
0.666667 0.666667 0.333333 V
0.666667 0.666667 0.666667 V
