ALGO = Fast
EDIFF = 0.0001
EDIFFG = 0.001
ENCUT = 520
IBRION = -1
ICHARG = 1
ISIF = 3
ISMEAR = -5
ISPIN = 2
LORBIT = 11
LREAL = Auto
LWAVE = False
MAGMOM = 81*0.6 27*5
NELM = 100
NSW = 0
PREC = Accurate
SIGMA = 0.2
